c description: Graph 3-Colorability of graph: 
c generator: CNFgen (0.9.0)
c copyright: (C) 2012-2020 Massimo Lauria <massimo.lauria@uniroma1.it>
c url: https://massimolauria.net/cnfgen
c
p cnf 150 500
1 2 3 0
-1 -2 0
-1 -3 0
-2 -3 0
4 5 6 0
-4 -5 0
-4 -6 0
-5 -6 0
7 8 9 0
-7 -8 0
-7 -9 0
-8 -9 0
10 11 12 0
-10 -11 0
-10 -12 0
-11 -12 0
13 14 15 0
-13 -14 0
-13 -15 0
-14 -15 0
16 17 18 0
-16 -17 0
-16 -18 0
-17 -18 0
19 20 21 0
-19 -20 0
-19 -21 0
-20 -21 0
22 23 24 0
-22 -23 0
-22 -24 0
-23 -24 0
25 26 27 0
-25 -26 0
-25 -27 0
-26 -27 0
28 29 30 0
-28 -29 0
-28 -30 0
-29 -30 0
31 32 33 0
-31 -32 0
-31 -33 0
-32 -33 0
34 35 36 0
-34 -35 0
-34 -36 0
-35 -36 0
37 38 39 0
-37 -38 0
-37 -39 0
-38 -39 0
40 41 42 0
-40 -41 0
-40 -42 0
-41 -42 0
43 44 45 0
-43 -44 0
-43 -45 0
-44 -45 0
46 47 48 0
-46 -47 0
-46 -48 0
-47 -48 0
49 50 51 0
-49 -50 0
-49 -51 0
-50 -51 0
52 53 54 0
-52 -53 0
-52 -54 0
-53 -54 0
55 56 57 0
-55 -56 0
-55 -57 0
-56 -57 0
58 59 60 0
-58 -59 0
-58 -60 0
-59 -60 0
61 62 63 0
-61 -62 0
-61 -63 0
-62 -63 0
64 65 66 0
-64 -65 0
-64 -66 0
-65 -66 0
67 68 69 0
-67 -68 0
-67 -69 0
-68 -69 0
70 71 72 0
-70 -71 0
-70 -72 0
-71 -72 0
73 74 75 0
-73 -74 0
-73 -75 0
-74 -75 0
76 77 78 0
-76 -77 0
-76 -78 0
-77 -78 0
79 80 81 0
-79 -80 0
-79 -81 0
-80 -81 0
82 83 84 0
-82 -83 0
-82 -84 0
-83 -84 0
85 86 87 0
-85 -86 0
-85 -87 0
-86 -87 0
88 89 90 0
-88 -89 0
-88 -90 0
-89 -90 0
91 92 93 0
-91 -92 0
-91 -93 0
-92 -93 0
94 95 96 0
-94 -95 0
-94 -96 0
-95 -96 0
97 98 99 0
-97 -98 0
-97 -99 0
-98 -99 0
100 101 102 0
-100 -101 0
-100 -102 0
-101 -102 0
103 104 105 0
-103 -104 0
-103 -105 0
-104 -105 0
106 107 108 0
-106 -107 0
-106 -108 0
-107 -108 0
109 110 111 0
-109 -110 0
-109 -111 0
-110 -111 0
112 113 114 0
-112 -113 0
-112 -114 0
-113 -114 0
115 116 117 0
-115 -116 0
-115 -117 0
-116 -117 0
118 119 120 0
-118 -119 0
-118 -120 0
-119 -120 0
121 122 123 0
-121 -122 0
-121 -123 0
-122 -123 0
124 125 126 0
-124 -125 0
-124 -126 0
-125 -126 0
127 128 129 0
-127 -128 0
-127 -129 0
-128 -129 0
130 131 132 0
-130 -131 0
-130 -132 0
-131 -132 0
133 134 135 0
-133 -134 0
-133 -135 0
-134 -135 0
136 137 138 0
-136 -137 0
-136 -138 0
-137 -138 0
139 140 141 0
-139 -140 0
-139 -141 0
-140 -141 0
142 143 144 0
-142 -143 0
-142 -144 0
-143 -144 0
145 146 147 0
-145 -146 0
-145 -147 0
-146 -147 0
148 149 150 0
-148 -149 0
-148 -150 0
-149 -150 0
-1 -4 0
-2 -5 0
-3 -6 0
-1 -7 0
-2 -8 0
-3 -9 0
-1 -22 0
-2 -23 0
-3 -24 0
-1 -25 0
-2 -26 0
-3 -27 0
-1 -127 0
-2 -128 0
-3 -129 0
-1 -139 0
-2 -140 0
-3 -141 0
-4 -28 0
-5 -29 0
-6 -30 0
-7 -34 0
-8 -35 0
-9 -36 0
-7 -37 0
-8 -38 0
-9 -39 0
-7 -64 0
-8 -65 0
-9 -66 0
-7 -73 0
-8 -74 0
-9 -75 0
-7 -109 0
-8 -110 0
-9 -111 0
-7 -130 0
-8 -131 0
-9 -132 0
-10 -55 0
-11 -56 0
-12 -57 0
-10 -79 0
-11 -80 0
-12 -81 0
-10 -85 0
-11 -86 0
-12 -87 0
-10 -91 0
-11 -92 0
-12 -93 0
-10 -97 0
-11 -98 0
-12 -99 0
-10 -118 0
-11 -119 0
-12 -120 0
-10 -130 0
-11 -131 0
-12 -132 0
-13 -58 0
-14 -59 0
-15 -60 0
-13 -67 0
-14 -68 0
-15 -69 0
-13 -94 0
-14 -95 0
-15 -96 0
-16 -31 0
-17 -32 0
-18 -33 0
-16 -91 0
-17 -92 0
-18 -93 0
-19 -37 0
-20 -38 0
-21 -39 0
-22 -28 0
-23 -29 0
-24 -30 0
-25 -76 0
-26 -77 0
-27 -78 0
-25 -103 0
-26 -104 0
-27 -105 0
-28 -70 0
-29 -71 0
-30 -72 0
-28 -127 0
-29 -128 0
-30 -129 0
-31 -34 0
-32 -35 0
-33 -36 0
-31 -43 0
-32 -44 0
-33 -45 0
-31 -103 0
-32 -104 0
-33 -105 0
-31 -124 0
-32 -125 0
-33 -126 0
-34 -37 0
-35 -38 0
-36 -39 0
-34 -58 0
-35 -59 0
-36 -60 0
-34 -76 0
-35 -77 0
-36 -78 0
-37 -52 0
-38 -53 0
-39 -54 0
-37 -73 0
-38 -74 0
-39 -75 0
-37 -85 0
-38 -86 0
-39 -87 0
-37 -106 0
-38 -107 0
-39 -108 0
-37 -115 0
-38 -116 0
-39 -117 0
-37 -130 0
-38 -131 0
-39 -132 0
-40 -79 0
-41 -80 0
-42 -81 0
-40 -82 0
-41 -83 0
-42 -84 0
-40 -91 0
-41 -92 0
-42 -93 0
-43 -61 0
-44 -62 0
-45 -63 0
-43 -109 0
-44 -110 0
-45 -111 0
-46 -85 0
-47 -86 0
-48 -87 0
-46 -100 0
-47 -101 0
-48 -102 0
-46 -103 0
-47 -104 0
-48 -105 0
-46 -109 0
-47 -110 0
-48 -111 0
-46 -133 0
-47 -134 0
-48 -135 0
-49 -55 0
-50 -56 0
-51 -57 0
-49 -58 0
-50 -59 0
-51 -60 0
-49 -97 0
-50 -98 0
-51 -99 0
-49 -124 0
-50 -125 0
-51 -126 0
-49 -148 0
-50 -149 0
-51 -150 0
-52 -70 0
-53 -71 0
-54 -72 0
-52 -91 0
-53 -92 0
-54 -93 0
-52 -97 0
-53 -98 0
-54 -99 0
-52 -109 0
-53 -110 0
-54 -111 0
-52 -112 0
-53 -113 0
-54 -114 0
-55 -58 0
-56 -59 0
-57 -60 0
-55 -106 0
-56 -107 0
-57 -108 0
-58 -97 0
-59 -98 0
-60 -99 0
-61 -79 0
-62 -80 0
-63 -81 0
-61 -88 0
-62 -89 0
-63 -90 0
-61 -130 0
-62 -131 0
-63 -132 0
-67 -88 0
-68 -89 0
-69 -90 0
-67 -112 0
-68 -113 0
-69 -114 0
-70 -100 0
-71 -101 0
-72 -102 0
-70 -109 0
-71 -110 0
-72 -111 0
-70 -112 0
-71 -113 0
-72 -114 0
-73 -94 0
-74 -95 0
-75 -96 0
-73 -136 0
-74 -137 0
-75 -138 0
-76 -88 0
-77 -89 0
-78 -90 0
-76 -94 0
-77 -95 0
-78 -96 0
-76 -139 0
-77 -140 0
-78 -141 0
-79 -121 0
-80 -122 0
-81 -123 0
-79 -139 0
-80 -140 0
-81 -141 0
-79 -145 0
-80 -146 0
-81 -147 0
-82 -106 0
-83 -107 0
-84 -108 0
-82 -115 0
-83 -116 0
-84 -117 0
-91 -112 0
-92 -113 0
-93 -114 0
-91 -124 0
-92 -125 0
-93 -126 0
-94 -103 0
-95 -104 0
-96 -105 0
-94 -124 0
-95 -125 0
-96 -126 0
-94 -136 0
-95 -137 0
-96 -138 0
-97 -112 0
-98 -113 0
-99 -114 0
-100 -130 0
-101 -131 0
-102 -132 0
-103 -133 0
-104 -134 0
-105 -135 0
-109 -136 0
-110 -137 0
-111 -138 0
-112 -124 0
-113 -125 0
-114 -126 0
-112 -133 0
-113 -134 0
-114 -135 0
-115 -118 0
-116 -119 0
-117 -120 0
-118 -133 0
-119 -134 0
-120 -135 0
-124 -127 0
-125 -128 0
-126 -129 0
-124 -133 0
-125 -134 0
-126 -135 0